%BLOCK LATTICE_CART
4.12 0 0
0 4.12 0
0 0 4.12
%END BLOCK LATTICE_CART
%BLOCK POSITIONS_FRAC
Na 0 0 0
Na 0.5 0.5 0.5
%END BLOCK POSITIONS_FRAC
%BLOCK SPECIES_POT
Na psp-20.0-5.0.recpot 
%END BLOCK SPECIES_POT
%BLOCK SPECIES_NLCC
Na Na.NLCC 
%END BLOCK SPECIES_NLCC
